\ Model Ore Mixing Problem
\ LP format - for model browsing. Use MPS format to capture full model detail.
Minimize
  56.40157924421882 a_max_00 + 121.8026796589526 a_max_01
   + 1162.790697674419 a_max_10 + 20000 a_max_11 + 20000 a_max_20
   + 2083.333333333333 a_max_21 + 4545.454545454546 a_max_30
   + 3846.153846153846 a_max_31 + 10000 a_max_40
   + 1315.789473684211 a_max_41 + 952.3809523809525 a_max_50
   + 925.9259259259259 a_max_51 + 36.67033370003667 a_min_00
   + 27.18129926610492 a_min_01 + 1562.5 a_min_10
   + 689.6551724137931 a_min_11 + 2222.222222222222 a_min_20
   + 50000 a_min_21 + 3571.428571428571 a_min_30
   + 4166.666666666667 a_min_31 + 1111.111111111111 a_min_40
   + 4166.666666666667 a_min_41 + 2222.222222222221 a_min_50
   + 2380.952380952381 a_min_51 + 0.0564015792442188 b_min_00
   + 0.1218026796589526 b_min_01 + 1.5625 b_min_10 + 20 b_min_11
   + 20 b_min_20 + 50 b_min_21 + 4.545454545454546 b_min_30
   + 4.166666666666667 b_min_31 + 10 b_min_40 + 4.166666666666667 b_min_41
   + 2.222222222222221 b_min_50 + 2.380952380952381 b_min_51
   + 0.0564015792442188 b_max_00 + 0.1218026796589526 b_max_01
   + 1.5625 b_max_10 + 20 b_max_11 + 20 b_max_20 + 50 b_max_21
   + 4.545454545454546 b_max_30 + 4.166666666666667 b_max_31 + 10 b_max_40
   + 4.166666666666667 b_max_41 + 2.222222222222221 b_max_50
   + 2.380952380952381 b_max_51
Subject To
 capacity_constr_0: x_00 + x_01 <= 728.7
 capacity_constr_1: x_10 + x_11 <= 555.5
 capacity_constr_2: x_20 + x_21 <= 863.3
 capacity_constr_3: x_30 + x_31 <= 857.2
 capacity_constr_4: x_40 + x_41 <= 822.3
 capacity_constr_5: x_50 + x_51 <= 907.5
 demand_constr_0: x_00 + x_10 + x_20 + x_30 + x_40 + x_50 = 1080.2
 min_quality_constr_00: 9.1 x_00 + 29.73 x_10 + 41.53 x_20 + 7.92 x_30
   + 33.82 x_40 + 13.21 x_50 + 1080.2 a_min_00 >= -0
 max_quality_constr_00: - 35.9 x_00 - 15.27 x_10 - 3.47 x_20 - 37.08 x_30
   - 11.18 x_40 - 31.79 x_50 - 1080.2 a_max_00 <= -0
 goal_quality_constr_00: - 18.17 x_00 + 2.46 x_10 + 14.26 x_20 - 19.35 x_30
   + 6.55 x_40 - 14.06 x_50 + b_min_00 - b_max_00 = -0
 min_quality_constr_10: 0.64 x_00 + 1.36 x_10 + 0.81 x_20 + 1.57 x_30
   + 1.78 x_40 + 1.47 x_50 + 1080.2 a_min_10 >= -0
 max_quality_constr_10: - 0.86 x_00 - 0.14 x_10 - 0.69 x_20 + 0.07 x_30
   + 0.28 x_40 - 0.03 x_50 - 1080.2 a_max_10 <= -0
 goal_quality_constr_10: 0.72 x_10 + 0.17 x_20 + 0.93 x_30 + 1.14 x_40
   + 0.83 x_50 + b_min_10 - b_max_10 = -0
 min_quality_constr_20: 0.75 x_00 + 0.84 x_10 + 3.5 x_20 + 5.48 x_30
   + 4.8 x_40 + 5.4 x_50 + 1080.2 a_min_20 >= -0
 max_quality_constr_20: 0.25 x_00 + 0.34 x_10 + 3 x_20 + 4.98 x_30
   + 4.3 x_40 + 4.9 x_50 - 1080.2 a_max_20 <= -0
 goal_quality_constr_20: 0.3 x_00 + 0.39 x_10 + 3.05 x_20 + 5.03 x_30
   + 4.35 x_40 + 4.95 x_50 + b_min_20 - b_max_20 = -0
 min_quality_constr_30: 1.03 x_00 + 5.85 x_10 + 0.63 x_20 + 0.14 x_30
   + 1.74 x_40 + 2.12 x_50 + 1080.2 a_min_30 >= -0
 max_quality_constr_30: 0.53 x_00 + 5.35 x_10 + 0.13 x_20 - 0.36 x_30
   + 1.24 x_40 + 1.62 x_50 - 1080.2 a_max_30 <= -0
 goal_quality_constr_30: 0.75 x_00 + 5.57 x_10 + 0.35 x_20 - 0.14 x_30
   + 1.46 x_40 + 1.84 x_50 + b_min_30 - b_max_30 = -0
 min_quality_constr_40: 1.09 x_00 + 1.2 x_10 + 1.14 x_20 + 0.48 x_30
   + 0.6 x_40 + 1.2 x_50 + 1080.2 a_min_40 >= -0
 max_quality_constr_40: 0.09 x_00 + 0.2 x_10 + 0.14 x_20 - 0.52 x_30
   - 0.4 x_40 + 0.2 x_50 - 1080.2 a_max_40 <= -0
 goal_quality_constr_40: 0.19 x_00 + 0.3 x_10 + 0.24 x_20 - 0.42 x_30
   - 0.3 x_40 + 0.3 x_50 + b_min_40 - b_max_40 = -0
 min_quality_constr_50: 1.9 x_00 + 1.62 x_10 + 1.61 x_20 + 0.89 x_30
   - 0.35 x_40 + 0.17 x_50 + 1080.2 a_min_50 >= -0
 max_quality_constr_50: 0.4 x_00 + 0.12 x_10 + 0.11 x_20 - 0.61 x_30
   - 1.85 x_40 - 1.33 x_50 - 1080.2 a_max_50 <= -0
 goal_quality_constr_50: 1.45 x_00 + 1.17 x_10 + 1.16 x_20 + 0.44 x_30
   - 0.8 x_40 - 0.28 x_50 + b_min_50 - b_max_50 = -0
 demand_constr_1: x_01 + x_11 + x_21 + x_31 + x_41 + x_51 = 1288
 min_quality_constr_01: 9.1 x_01 + 29.73 x_11 + 41.53 x_21 + 7.92 x_31
   + 33.82 x_41 + 13.21 x_51 + 1288 a_min_01 >= -0
 max_quality_constr_01: - 35.9 x_01 - 15.27 x_11 - 3.47 x_21 - 37.08 x_31
   - 11.18 x_41 - 31.79 x_51 - 1288 a_max_01 <= -0
 goal_quality_constr_01: - 27.69 x_01 - 7.06 x_11 + 4.74 x_21 - 28.87 x_31
   - 2.97 x_41 - 23.58 x_51 + b_min_01 - b_max_01 = -0
 min_quality_constr_11: 0.64 x_01 + 1.36 x_11 + 0.81 x_21 + 1.57 x_31
   + 1.78 x_41 + 1.47 x_51 + 1288 a_min_11 >= -0
 max_quality_constr_11: - 0.86 x_01 - 0.14 x_11 - 0.69 x_21 + 0.07 x_31
   + 0.28 x_41 - 0.03 x_51 - 1288 a_max_11 <= -0
 goal_quality_constr_11: - 0.81 x_01 - 0.09 x_11 - 0.64 x_21 + 0.12 x_31
   + 0.33 x_41 + 0.02 x_51 + b_min_11 - b_max_11 = -0
 min_quality_constr_21: 0.75 x_01 + 0.84 x_11 + 3.5 x_21 + 5.48 x_31
   + 4.8 x_41 + 5.4 x_51 + 1288 a_min_21 >= -0
 max_quality_constr_21: 0.25 x_01 + 0.34 x_11 + 3 x_21 + 4.98 x_31
   + 4.3 x_41 + 4.9 x_51 - 1288 a_max_21 <= -0
 goal_quality_constr_21: 0.73 x_01 + 0.82 x_11 + 3.48 x_21 + 5.46 x_31
   + 4.78 x_41 + 5.38 x_51 + b_min_21 - b_max_21 = -0
 min_quality_constr_31: 1.03 x_01 + 5.85 x_11 + 0.63 x_21 + 0.14 x_31
   + 1.74 x_41 + 2.12 x_51 + 1288 a_min_31 >= -0
 max_quality_constr_31: 0.53 x_01 + 5.35 x_11 + 0.13 x_21 - 0.36 x_31
   + 1.24 x_41 + 1.62 x_51 - 1288 a_max_31 <= -0
 goal_quality_constr_31: 0.79 x_01 + 5.61 x_11 + 0.39 x_21 - 0.1 x_31
   + 1.5 x_41 + 1.88 x_51 + b_min_31 - b_max_31 = -0
 min_quality_constr_41: 1.09 x_01 + 1.2 x_11 + 1.14 x_21 + 0.48 x_31
   + 0.6 x_41 + 1.2 x_51 + 1288 a_min_41 >= -0
 max_quality_constr_41: 0.09 x_01 + 0.2 x_11 + 0.14 x_21 - 0.52 x_31
   - 0.4 x_41 + 0.2 x_51 - 1288 a_max_41 <= -0
 goal_quality_constr_41: 0.85 x_01 + 0.96 x_11 + 0.9 x_21 + 0.24 x_31
   + 0.36 x_41 + 0.96 x_51 + b_min_41 - b_max_41 = -0
 min_quality_constr_51: 1.9 x_01 + 1.62 x_11 + 1.61 x_21 + 0.89 x_31
   - 0.35 x_41 + 0.17 x_51 + 1288 a_min_51 >= -0
 max_quality_constr_51: 0.4 x_01 + 0.12 x_11 + 0.11 x_21 - 0.61 x_31
   - 1.85 x_41 - 1.33 x_51 - 1288 a_max_51 <= -0
 goal_quality_constr_51: 1.48 x_01 + 1.2 x_11 + 1.19 x_21 + 0.47 x_31
   - 0.77 x_41 - 0.25 x_51 + b_min_51 - b_max_51 = -0
Bounds
End
